% Auto-generated by scripts/generate_dzn.py
% problem_type   = regex
% instance       = regex_19
% source_json    = instances_json/1_medium_blowup/regex_19.json
% blowup         = 2.7777777777777777
% representation = DFA

mode = 0;

var_count = 13;
n_constraints = 2;
Q = 41;
S = 3;
q0 = [1, 1];
F = [{29, 30, 31, 32, 33, 34, 35, 36, 37, 38, 39, 40, 41}, {8}];
weights = [10, 9, 3, 10, 2, 2, 10, 7, 8, 3, 7, 4, 3];
d_dfa = array3d(1..2, 1..41, 1..3, [
  % k = 1
    1, 2, 1,
    3, 2, 1,
    1, 2, 4,
    5, 6, 5,
    7, 8, 7,
    9, 8, 7,
    10, 11, 10,
    12, 11, 10,
    10, 11, 13,
    14, 15, 14,
    16, 15, 14,
    14, 15, 17,
    18, 19, 18,
    20, 21, 20,
    22, 21, 20,
    20, 21, 23,
    24, 25, 24,
    26, 27, 26,
    28, 27, 26,
    29, 30, 29,
    31, 30, 29,
    29, 30, 32,
    33, 34, 33,
    35, 36, 35,
    37, 36, 35,
    38, 39, 38,
    40, 39, 38,
    38, 39, 41,
    1, 2, 1,
    3, 2, 1,
    1, 2, 4,
    5, 6, 5,
    7, 8, 7,
    9, 8, 7,
    10, 11, 10,
    12, 11, 10,
    10, 11, 13,
    14, 15, 14,
    16, 15, 14,
    14, 15, 17,
    18, 19, 18,

  % k = 2
    2, 1, 1,
    3, 2, 2,
    4, 3, 3,
    5, 4, 4,
    6, 5, 5,
    7, 6, 6,
    8, 7, 7,
    9, 8, 8,
    9, 9, 9,
    0, 0, 0,
    0, 0, 0,
    0, 0, 0,
    0, 0, 0,
    0, 0, 0,
    0, 0, 0,
    0, 0, 0,
    0, 0, 0,
    0, 0, 0,
    0, 0, 0,
    0, 0, 0,
    0, 0, 0,
    0, 0, 0,
    0, 0, 0,
    0, 0, 0,
    0, 0, 0,
    0, 0, 0,
    0, 0, 0,
    0, 0, 0,
    0, 0, 0,
    0, 0, 0,
    0, 0, 0,
    0, 0, 0,
    0, 0, 0,
    0, 0, 0,
    0, 0, 0,
    0, 0, 0,
    0, 0, 0,
    0, 0, 0,
    0, 0, 0,
    0, 0, 0,
    0, 0, 0
]);
d_nfa = array3d(1..2, 1..41, 1..3, [
  % k = 1
    {}, {}, {},
    {}, {}, {},
    {}, {}, {},
    {}, {}, {},
    {}, {}, {},
    {}, {}, {},
    {}, {}, {},
    {}, {}, {},
    {}, {}, {},
    {}, {}, {},
    {}, {}, {},
    {}, {}, {},
    {}, {}, {},
    {}, {}, {},
    {}, {}, {},
    {}, {}, {},
    {}, {}, {},
    {}, {}, {},
    {}, {}, {},
    {}, {}, {},
    {}, {}, {},
    {}, {}, {},
    {}, {}, {},
    {}, {}, {},
    {}, {}, {},
    {}, {}, {},
    {}, {}, {},
    {}, {}, {},
    {}, {}, {},
    {}, {}, {},
    {}, {}, {},
    {}, {}, {},
    {}, {}, {},
    {}, {}, {},
    {}, {}, {},
    {}, {}, {},
    {}, {}, {},
    {}, {}, {},
    {}, {}, {},
    {}, {}, {},
    {}, {}, {},

  % k = 2
    {}, {}, {},
    {}, {}, {},
    {}, {}, {},
    {}, {}, {},
    {}, {}, {},
    {}, {}, {},
    {}, {}, {},
    {}, {}, {},
    {}, {}, {},
    {}, {}, {},
    {}, {}, {},
    {}, {}, {},
    {}, {}, {},
    {}, {}, {},
    {}, {}, {},
    {}, {}, {},
    {}, {}, {},
    {}, {}, {},
    {}, {}, {},
    {}, {}, {},
    {}, {}, {},
    {}, {}, {},
    {}, {}, {},
    {}, {}, {},
    {}, {}, {},
    {}, {}, {},
    {}, {}, {},
    {}, {}, {},
    {}, {}, {},
    {}, {}, {},
    {}, {}, {},
    {}, {}, {},
    {}, {}, {},
    {}, {}, {},
    {}, {}, {},
    {}, {}, {},
    {}, {}, {},
    {}, {}, {},
    {}, {}, {},
    {}, {}, {},
    {}, {}, {}
]);
